(declare-fun _for_it_23 () Int)
(declare-fun _for_it_46 () Int)
(declare-fun kfdia () Int)
(declare-fun kidia () Int)
(declare-fun klev () Int)
(declare-fun ncldtop () Int)

(assert (forall ((_if_cond_32_val (Array Int Int)) (_if_cond_38_val (Array Int Int)) (_if_cond_39_val (Array Int Int)) (_if_cond_40_val (Array Int Int)) (_if_cond_41_val (Array Int Int)) (_if_cond_42_val (Array Int Int)) (_if_cond_43_val (Array Int Int)) (zsigk_val (Array Int Int)))
  (and
    (and
      (<= (+ _for_it_46 1) (+ kfdia (- 1)))
      (<= (+ kidia (- 1)) _for_it_46)
      (<= kidia (+ kfdia (- 1)))
      (<= ncldtop (+ klev (- 1)))
    )
    (or
      (= (select _if_cond_43_val (- (+ _for_it_46 (* (- (+ _for_it_23 1) ncldtop) (- kfdia kidia)) 1) kidia)) 1)
      (not (= (select _if_cond_32_val (- (+ _for_it_46 (* (- (+ _for_it_23 1) ncldtop) (- kfdia kidia)) 1) kidia)) 1))
      (not (= (select _if_cond_32_val (- (+ _for_it_46 (* (- (+ _for_it_23 1) ncldtop) (- kfdia kidia)) 2) kidia)) 1))
      (not (= _for_it_46 (+ _for_it_46 1)))
      (not (= (select _if_cond_39_val (- (+ _for_it_46 (* (- (+ _for_it_23 1) ncldtop) (- kfdia kidia)) 2) kidia)) 1))
      (not (= (select _if_cond_39_val (- (+ _for_it_46 (* (- (+ _for_it_23 1) ncldtop) (- kfdia kidia)) 1) kidia)) 1))
      (= (select _if_cond_43_val (- (+ _for_it_46 (* (- (+ _for_it_23 1) ncldtop) (- kfdia kidia)) 2) kidia)) 1)
    )
    (or
      (= (select _if_cond_43_val (- (+ _for_it_46 (* (- (+ _for_it_23 1) ncldtop) (- kfdia kidia)) 1) kidia)) 1)
      (not (= (select _if_cond_32_val (- (+ _for_it_46 (* (- (+ _for_it_23 1) ncldtop) (- kfdia kidia)) 1) kidia)) 1))
      (not (= (select _if_cond_32_val (- (+ _for_it_46 (* (- (+ _for_it_23 1) ncldtop) (- kfdia kidia)) 2) kidia)) 1))
      (not (= _for_it_46 (+ _for_it_46 1)))
      (not (= (select _if_cond_39_val (- (+ _for_it_46 (* (- (+ _for_it_23 1) ncldtop) (- kfdia kidia)) 2) kidia)) 1))
      (not (= (select _if_cond_41_val 0) 1))
      (not (= (select _if_cond_39_val (- (+ _for_it_46 (* (- (+ _for_it_23 1) ncldtop) (- kfdia kidia)) 1) kidia)) 1))
    )
    (or
      (= (select _if_cond_43_val (- (+ _for_it_46 (* (- (+ _for_it_23 1) ncldtop) (- kfdia kidia)) 1) kidia)) 1)
      (not (= (select _if_cond_32_val (- (+ _for_it_46 (* (- (+ _for_it_23 1) ncldtop) (- kfdia kidia)) 1) kidia)) 1))
      (not (= (select _if_cond_32_val (- (+ _for_it_46 (* (- (+ _for_it_23 1) ncldtop) (- kfdia kidia)) 2) kidia)) 1))
      (not (= _for_it_46 (+ _for_it_46 1)))
      (not (= (select _if_cond_39_val (- (+ _for_it_46 (* (- (+ _for_it_23 1) ncldtop) (- kfdia kidia)) 2) kidia)) 1))
      (not (= (select _if_cond_39_val (- (+ _for_it_46 (* (- (+ _for_it_23 1) ncldtop) (- kfdia kidia)) 1) kidia)) 1))
    )
    (or
      (= (select _if_cond_43_val (- (+ _for_it_46 (* (- (+ _for_it_23 1) ncldtop) (- kfdia kidia)) 1) kidia)) 1)
      (not (= (select _if_cond_32_val (- (+ _for_it_46 (* (- (+ _for_it_23 1) ncldtop) (- kfdia kidia)) 1) kidia)) 1))
      (not (= (select _if_cond_32_val (- (+ _for_it_46 (* (- (+ _for_it_23 1) ncldtop) (- kfdia kidia)) 2) kidia)) 1))
      (not (= _for_it_46 (+ _for_it_46 1)))
      (not (= (select _if_cond_39_val (- (+ _for_it_46 (* (- (+ _for_it_23 1) ncldtop) (- kfdia kidia)) 2) kidia)) 1))
      (not (= (select _if_cond_40_val 0) 1))
      (not (= (select _if_cond_39_val (- (+ _for_it_46 (* (- (+ _for_it_23 1) ncldtop) (- kfdia kidia)) 1) kidia)) 1))
    )
    (or
      (not (= (select _if_cond_43_val (- (+ _for_it_46 (* (- (+ _for_it_23 1) ncldtop) (- kfdia kidia)) 1) kidia)) 1))
      (not (= (select _if_cond_32_val (- (+ _for_it_46 (* (- (+ _for_it_23 1) ncldtop) (- kfdia kidia)) 1) kidia)) 1))
      (not (= (select _if_cond_32_val (- (+ _for_it_46 (* (- (+ _for_it_23 1) ncldtop) (- kfdia kidia)) 2) kidia)) 1))
      (not (= _for_it_46 (+ _for_it_46 1)))
      (not (= (select _if_cond_39_val (- (+ _for_it_46 (* (- (+ _for_it_23 1) ncldtop) (- kfdia kidia)) 2) kidia)) 1))
      (not (= (select _if_cond_39_val (- (+ _for_it_46 (* (- (+ _for_it_23 1) ncldtop) (- kfdia kidia)) 1) kidia)) 1))
      (not (= (select _if_cond_43_val (- (+ _for_it_46 (* (- (+ _for_it_23 1) ncldtop) (- kfdia kidia)) 2) kidia)) 1))
    )
    (or
      (not (= (select _if_cond_43_val (- (+ _for_it_46 (* (- (+ _for_it_23 1) ncldtop) (- kfdia kidia)) 1) kidia)) 1))
      (not (= (select _if_cond_32_val (- (+ _for_it_46 (* (- (+ _for_it_23 1) ncldtop) (- kfdia kidia)) 1) kidia)) 1))
      (not (= (select _if_cond_32_val (- (+ _for_it_46 (* (- (+ _for_it_23 1) ncldtop) (- kfdia kidia)) 2) kidia)) 1))
      (not (= _for_it_46 (+ _for_it_46 1)))
      (not (= (select _if_cond_39_val (- (+ _for_it_46 (* (- (+ _for_it_23 1) ncldtop) (- kfdia kidia)) 2) kidia)) 1))
      (not (= (select _if_cond_41_val 0) 1))
      (not (= (select _if_cond_39_val (- (+ _for_it_46 (* (- (+ _for_it_23 1) ncldtop) (- kfdia kidia)) 1) kidia)) 1))
    )
    (or
      (not (= (select _if_cond_43_val (- (+ _for_it_46 (* (- (+ _for_it_23 1) ncldtop) (- kfdia kidia)) 1) kidia)) 1))
      (not (= (select _if_cond_32_val (- (+ _for_it_46 (* (- (+ _for_it_23 1) ncldtop) (- kfdia kidia)) 1) kidia)) 1))
      (not (= (select _if_cond_32_val (- (+ _for_it_46 (* (- (+ _for_it_23 1) ncldtop) (- kfdia kidia)) 2) kidia)) 1))
      (not (= _for_it_46 (+ _for_it_46 1)))
      (not (= (select _if_cond_39_val (- (+ _for_it_46 (* (- (+ _for_it_23 1) ncldtop) (- kfdia kidia)) 2) kidia)) 1))
      (not (= (select _if_cond_39_val (- (+ _for_it_46 (* (- (+ _for_it_23 1) ncldtop) (- kfdia kidia)) 1) kidia)) 1))
    )
    (or
      (not (= (select _if_cond_43_val (- (+ _for_it_46 (* (- (+ _for_it_23 1) ncldtop) (- kfdia kidia)) 1) kidia)) 1))
      (not (= (select _if_cond_32_val (- (+ _for_it_46 (* (- (+ _for_it_23 1) ncldtop) (- kfdia kidia)) 1) kidia)) 1))
      (not (= (select _if_cond_32_val (- (+ _for_it_46 (* (- (+ _for_it_23 1) ncldtop) (- kfdia kidia)) 2) kidia)) 1))
      (not (= _for_it_46 (+ _for_it_46 1)))
      (not (= (select _if_cond_39_val (- (+ _for_it_46 (* (- (+ _for_it_23 1) ncldtop) (- kfdia kidia)) 2) kidia)) 1))
      (not (= (select _if_cond_40_val 0) 1))
      (not (= (select _if_cond_39_val (- (+ _for_it_46 (* (- (+ _for_it_23 1) ncldtop) (- kfdia kidia)) 1) kidia)) 1))
    )
    (or
      (not (= (select _if_cond_32_val (- (+ _for_it_46 (* (- (+ _for_it_23 1) ncldtop) (- kfdia kidia)) 1) kidia)) 1))
      (not (= (select _if_cond_32_val (- (+ _for_it_46 (* (- (+ _for_it_23 1) ncldtop) (- kfdia kidia)) 2) kidia)) 1))
      (not (= _for_it_46 (+ _for_it_46 1)))
      (not (= (select _if_cond_39_val (- (+ _for_it_46 (* (- (+ _for_it_23 1) ncldtop) (- kfdia kidia)) 2) kidia)) 1))
      (not (= (select _if_cond_39_val (- (+ _for_it_46 (* (- (+ _for_it_23 1) ncldtop) (- kfdia kidia)) 1) kidia)) 1))
    )
    (or
      (not (= (select _if_cond_32_val (- (+ _for_it_46 (* (- (+ _for_it_23 1) ncldtop) (- kfdia kidia)) 1) kidia)) 1))
      (not (= (select _if_cond_32_val (- (+ _for_it_46 (* (- (+ _for_it_23 1) ncldtop) (- kfdia kidia)) 2) kidia)) 1))
      (not (= (select _if_cond_39_val (- (+ _for_it_46 (* (- (+ _for_it_23 1) ncldtop) (- kfdia kidia)) 2) kidia)) 1))
      (not (= (select _if_cond_42_val (- (+ _for_it_46 (* (- (+ _for_it_23 1) ncldtop) (- kfdia kidia)) 2) kidia)) 1))
      (not (= (select _if_cond_39_val (- (+ _for_it_46 (* (- (+ _for_it_23 1) ncldtop) (- kfdia kidia)) 1) kidia)) 1))
    )
    (or
      (not (= (select _if_cond_32_val (- (+ _for_it_46 (* (- (+ _for_it_23 1) ncldtop) (- kfdia kidia)) 1) kidia)) 1))
      (not (= (select _if_cond_32_val (- (+ _for_it_46 (* (- (+ _for_it_23 1) ncldtop) (- kfdia kidia)) 2) kidia)) 1))
      (not (= (select _if_cond_39_val (- (+ _for_it_46 (* (- (+ _for_it_23 1) ncldtop) (- kfdia kidia)) 2) kidia)) 1))
      (not (= (select _if_cond_41_val 0) 1))
      (not (= (select _if_cond_39_val (- (+ _for_it_46 (* (- (+ _for_it_23 1) ncldtop) (- kfdia kidia)) 1) kidia)) 1))
    )
    (or
      (not (= (select _if_cond_39_val (- (+ _for_it_46 (* (- (+ _for_it_23 1) ncldtop) (- kfdia kidia)) 2) kidia)) 1))
      (not (= (select _if_cond_39_val (- (+ _for_it_46 (* (- (+ _for_it_23 1) ncldtop) (- kfdia kidia)) 1) kidia)) 1))
      (not (= (select _if_cond_32_val (- (+ _for_it_46 (* (- (+ _for_it_23 1) ncldtop) (- kfdia kidia)) 1) kidia)) 1))
      (not (= (select _if_cond_32_val (- (+ _for_it_46 (* (- (+ _for_it_23 1) ncldtop) (- kfdia kidia)) 2) kidia)) 1))
    )
    (not (= (- (+ _for_it_46 (* (- (+ _for_it_23 1) ncldtop) (- kfdia kidia)) 1) kidia) (- (+ _for_it_46 (* (- (+ _for_it_23 1) ncldtop) (- kfdia kidia)) 2) kidia)))
    (or
      (not (= (select _if_cond_32_val (- (+ _for_it_46 (* (- (+ _for_it_23 1) ncldtop) (- kfdia kidia)) 1) kidia)) 1))
      (not (= (select _if_cond_32_val (- (+ _for_it_46 (* (- (+ _for_it_23 1) ncldtop) (- kfdia kidia)) 2) kidia)) 1))
      (not (= (select _if_cond_39_val (- (+ _for_it_46 (* (- (+ _for_it_23 1) ncldtop) (- kfdia kidia)) 2) kidia)) 1))
      (not (= (select _if_cond_39_val (- (+ _for_it_46 (* (- (+ _for_it_23 1) ncldtop) (- kfdia kidia)) 1) kidia)) 1))
      (not (= (- (+ _for_it_46 (* (- (+ _for_it_23 1) ncldtop) (- kfdia kidia)) 1) kidia) (- (+ _for_it_46 (* (- (+ _for_it_23 1) ncldtop) (- kfdia kidia)) 2) kidia)))
    )
    (or
      (not (= (select _if_cond_42_val (- (+ _for_it_46 (* (- (+ _for_it_23 1) ncldtop) (- kfdia kidia)) 1) kidia)) 1))
      (not (= (select _if_cond_32_val (- (+ _for_it_46 (* (- (+ _for_it_23 1) ncldtop) (- kfdia kidia)) 1) kidia)) 1))
      (not (= (select _if_cond_32_val (- (+ _for_it_46 (* (- (+ _for_it_23 1) ncldtop) (- kfdia kidia)) 2) kidia)) 1))
      (not (= (select _if_cond_39_val (- (+ _for_it_46 (* (- (+ _for_it_23 1) ncldtop) (- kfdia kidia)) 2) kidia)) 1))
      (not (= (select _if_cond_39_val (- (+ _for_it_46 (* (- (+ _for_it_23 1) ncldtop) (- kfdia kidia)) 1) kidia)) 1))
    )
    (or
      (not (= (select _if_cond_42_val (- (+ _for_it_46 (* (- (+ _for_it_23 1) ncldtop) (- kfdia kidia)) 1) kidia)) 1))
      (not (= (select _if_cond_32_val (- (+ _for_it_46 (* (- (+ _for_it_23 1) ncldtop) (- kfdia kidia)) 1) kidia)) 1))
      (not (= (select _if_cond_32_val (- (+ _for_it_46 (* (- (+ _for_it_23 1) ncldtop) (- kfdia kidia)) 2) kidia)) 1))
      (not (= (select _if_cond_39_val (- (+ _for_it_46 (* (- (+ _for_it_23 1) ncldtop) (- kfdia kidia)) 2) kidia)) 1))
      (not (= (select _if_cond_42_val (- (+ _for_it_46 (* (- (+ _for_it_23 1) ncldtop) (- kfdia kidia)) 2) kidia)) 1))
      (not (= (select _if_cond_39_val (- (+ _for_it_46 (* (- (+ _for_it_23 1) ncldtop) (- kfdia kidia)) 1) kidia)) 1))
    )
    (or
      (not (= (select _if_cond_42_val (- (+ _for_it_46 (* (- (+ _for_it_23 1) ncldtop) (- kfdia kidia)) 1) kidia)) 1))
      (not (= (select _if_cond_32_val (- (+ _for_it_46 (* (- (+ _for_it_23 1) ncldtop) (- kfdia kidia)) 1) kidia)) 1))
      (not (= (select _if_cond_32_val (- (+ _for_it_46 (* (- (+ _for_it_23 1) ncldtop) (- kfdia kidia)) 2) kidia)) 1))
      (not (= (select _if_cond_39_val (- (+ _for_it_46 (* (- (+ _for_it_23 1) ncldtop) (- kfdia kidia)) 2) kidia)) 1))
      (not (= (select _if_cond_41_val 0) 1))
      (not (= (select _if_cond_39_val (- (+ _for_it_46 (* (- (+ _for_it_23 1) ncldtop) (- kfdia kidia)) 1) kidia)) 1))
    )
    (or
      (not (= (select _if_cond_32_val (- (+ _for_it_46 (* (- (+ _for_it_23 1) ncldtop) (- kfdia kidia)) 1) kidia)) 1))
      (not (= (select _if_cond_32_val (- (+ _for_it_46 (* (- (+ _for_it_23 1) ncldtop) (- kfdia kidia)) 2) kidia)) 1))
      (not (= (select _if_cond_39_val (- (+ _for_it_46 (* (- (+ _for_it_23 1) ncldtop) (- kfdia kidia)) 2) kidia)) 1))
      (not (= (select _if_cond_41_val 0) 1))
      (not (= (select _if_cond_39_val (- (+ _for_it_46 (* (- (+ _for_it_23 1) ncldtop) (- kfdia kidia)) 1) kidia)) 1))
      (not (= (- (+ _for_it_46 1) 1) (+ _for_it_46 1)))
    )
    (or
      (not (= (select _if_cond_32_val (- (+ _for_it_46 (* (- (+ _for_it_23 1) ncldtop) (- kfdia kidia)) 1) kidia)) 1))
      (not (= (select _if_cond_32_val (- (+ _for_it_46 (* (- (+ _for_it_23 1) ncldtop) (- kfdia kidia)) 2) kidia)) 1))
      (not (= (select _if_cond_39_val (- (+ _for_it_46 (* (- (+ _for_it_23 1) ncldtop) (- kfdia kidia)) 2) kidia)) 1))
      (not (= (select _if_cond_39_val (- (+ _for_it_46 (* (- (+ _for_it_23 1) ncldtop) (- kfdia kidia)) 1) kidia)) 1))
      (not (= (- (+ _for_it_46 1) 1) (+ _for_it_46 1)))
    )
    (or
      (not (= (select _if_cond_32_val (- (+ _for_it_46 (* (- (+ _for_it_23 1) ncldtop) (- kfdia kidia)) 1) kidia)) 1))
      (not (= (select _if_cond_32_val (- (+ _for_it_46 (* (- (+ _for_it_23 1) ncldtop) (- kfdia kidia)) 2) kidia)) 1))
      (not (= (select _if_cond_39_val (- (+ _for_it_46 (* (- (+ _for_it_23 1) ncldtop) (- kfdia kidia)) 2) kidia)) 1))
      (not (= (select _if_cond_40_val 0) 1))
      (not (= (select _if_cond_39_val (- (+ _for_it_46 (* (- (+ _for_it_23 1) ncldtop) (- kfdia kidia)) 1) kidia)) 1))
      (not (= (- (+ _for_it_46 1) 1) (+ _for_it_46 1)))
    )
    (or
      (not (= (select _if_cond_32_val (- (+ _for_it_46 (* (- (+ _for_it_23 1) ncldtop) (- kfdia kidia)) 1) kidia)) 1))
      (not (= (select _if_cond_32_val (- (+ _for_it_46 (* (- (+ _for_it_23 1) ncldtop) (- kfdia kidia)) 2) kidia)) 1))
      (not (= (select _if_cond_39_val (- (+ _for_it_46 (* (- (+ _for_it_23 1) ncldtop) (- kfdia kidia)) 2) kidia)) 1))
      (not (= (select _if_cond_41_val 0) 1))
      (not (= (select _if_cond_42_val (- (+ _for_it_46 (* (- (+ _for_it_23 1) ncldtop) (- kfdia kidia)) 2) kidia)) 1))
      (not (= (select _if_cond_39_val (- (+ _for_it_46 (* (- (+ _for_it_23 1) ncldtop) (- kfdia kidia)) 1) kidia)) 1))
    )
    (or
      (not (= (select _if_cond_32_val (- (+ _for_it_46 (* (- (+ _for_it_23 1) ncldtop) (- kfdia kidia)) 1) kidia)) 1))
      (not (= (select _if_cond_32_val (- (+ _for_it_46 (* (- (+ _for_it_23 1) ncldtop) (- kfdia kidia)) 2) kidia)) 1))
      (not (= _for_it_46 (+ _for_it_46 1)))
      (not (= (select _if_cond_39_val (- (+ _for_it_46 (* (- (+ _for_it_23 1) ncldtop) (- kfdia kidia)) 2) kidia)) 1))
      (not (= (select _if_cond_41_val 0) 1))
      (not (= (select _if_cond_39_val (- (+ _for_it_46 (* (- (+ _for_it_23 1) ncldtop) (- kfdia kidia)) 1) kidia)) 1))
      (= (select _if_cond_43_val (- (+ _for_it_46 (* (- (+ _for_it_23 1) ncldtop) (- kfdia kidia)) 2) kidia)) 1)
    )
    (or
      (not (= (select _if_cond_32_val (- (+ _for_it_46 (* (- (+ _for_it_23 1) ncldtop) (- kfdia kidia)) 1) kidia)) 1))
      (not (= (select _if_cond_32_val (- (+ _for_it_46 (* (- (+ _for_it_23 1) ncldtop) (- kfdia kidia)) 2) kidia)) 1))
      (not (= _for_it_46 (+ _for_it_46 1)))
      (not (= (select _if_cond_39_val (- (+ _for_it_46 (* (- (+ _for_it_23 1) ncldtop) (- kfdia kidia)) 2) kidia)) 1))
      (not (= (select _if_cond_41_val 0) 1))
      (not (= (select _if_cond_39_val (- (+ _for_it_46 (* (- (+ _for_it_23 1) ncldtop) (- kfdia kidia)) 1) kidia)) 1))
      (not (= (select _if_cond_43_val (- (+ _for_it_46 (* (- (+ _for_it_23 1) ncldtop) (- kfdia kidia)) 2) kidia)) 1))
    )
    (or
      (not (= (select _if_cond_32_val (- (+ _for_it_46 (* (- (+ _for_it_23 1) ncldtop) (- kfdia kidia)) 1) kidia)) 1))
      (not (= (select _if_cond_32_val (- (+ _for_it_46 (* (- (+ _for_it_23 1) ncldtop) (- kfdia kidia)) 2) kidia)) 1))
      (not (= (select _if_cond_39_val (- (+ _for_it_46 (* (- (+ _for_it_23 1) ncldtop) (- kfdia kidia)) 2) kidia)) 1))
      (not (= _for_it_46 (- (+ _for_it_46 2) 1)))
      (not (= (select _if_cond_41_val 0) 1))
      (not (= (select _if_cond_39_val (- (+ _for_it_46 (* (- (+ _for_it_23 1) ncldtop) (- kfdia kidia)) 1) kidia)) 1))
    )
    (or
      (not (= (select _if_cond_32_val (- (+ _for_it_46 (* (- (+ _for_it_23 1) ncldtop) (- kfdia kidia)) 1) kidia)) 1))
      (not (= (select _if_cond_32_val (- (+ _for_it_46 (* (- (+ _for_it_23 1) ncldtop) (- kfdia kidia)) 2) kidia)) 1))
      (not (= _for_it_46 (+ _for_it_46 1)))
      (not (= (select _if_cond_39_val (- (+ _for_it_46 (* (- (+ _for_it_23 1) ncldtop) (- kfdia kidia)) 2) kidia)) 1))
      (not (= (select _if_cond_41_val 0) 1))
      (not (= (select _if_cond_39_val (- (+ _for_it_46 (* (- (+ _for_it_23 1) ncldtop) (- kfdia kidia)) 1) kidia)) 1))
    )
    (or
      (not (= (select _if_cond_32_val (- (+ _for_it_46 (* (- (+ _for_it_23 1) ncldtop) (- kfdia kidia)) 1) kidia)) 1))
      (not (= (select _if_cond_32_val (- (+ _for_it_46 (* (- (+ _for_it_23 1) ncldtop) (- kfdia kidia)) 2) kidia)) 1))
      (not (= _for_it_46 (+ _for_it_46 1)))
      (not (= (select _if_cond_39_val (- (+ _for_it_46 (* (- (+ _for_it_23 1) ncldtop) (- kfdia kidia)) 2) kidia)) 1))
      (not (= (select _if_cond_40_val 0) 1))
      (not (= (select _if_cond_41_val 0) 1))
      (not (= (select _if_cond_39_val (- (+ _for_it_46 (* (- (+ _for_it_23 1) ncldtop) (- kfdia kidia)) 1) kidia)) 1))
    )
    (or
      (not (= (select _if_cond_32_val (- (+ _for_it_46 (* (- (+ _for_it_23 1) ncldtop) (- kfdia kidia)) 1) kidia)) 1))
      (not (= (select _if_cond_32_val (- (+ _for_it_46 (* (- (+ _for_it_23 1) ncldtop) (- kfdia kidia)) 2) kidia)) 1))
      (not (= _for_it_46 (+ _for_it_46 1)))
      (not (= (select _if_cond_39_val (- (+ _for_it_46 (* (- (+ _for_it_23 1) ncldtop) (- kfdia kidia)) 2) kidia)) 1))
      (not (= (select _if_cond_40_val 0) 1))
      (not (= (select _if_cond_39_val (- (+ _for_it_46 (* (- (+ _for_it_23 1) ncldtop) (- kfdia kidia)) 1) kidia)) 1))
    )
    (or
      (not (= (select _if_cond_32_val (- (+ _for_it_46 (* (- (+ _for_it_23 1) ncldtop) (- kfdia kidia)) 1) kidia)) 1))
      (not (= (select _if_cond_32_val (- (+ _for_it_46 (* (- (+ _for_it_23 1) ncldtop) (- kfdia kidia)) 2) kidia)) 1))
      (not (= _for_it_46 (+ _for_it_46 1)))
      (not (= (select _if_cond_39_val (- (+ _for_it_46 (* (- (+ _for_it_23 1) ncldtop) (- kfdia kidia)) 2) kidia)) 1))
      (not (= (select _if_cond_39_val (- (+ _for_it_46 (* (- (+ _for_it_23 1) ncldtop) (- kfdia kidia)) 1) kidia)) 1))
      (= (select _if_cond_43_val (- (+ _for_it_46 (* (- (+ _for_it_23 1) ncldtop) (- kfdia kidia)) 2) kidia)) 1)
    )
    (or
      (not (= (select _if_cond_32_val (- (+ _for_it_46 (* (- (+ _for_it_23 1) ncldtop) (- kfdia kidia)) 1) kidia)) 1))
      (not (= (select _if_cond_32_val (- (+ _for_it_46 (* (- (+ _for_it_23 1) ncldtop) (- kfdia kidia)) 2) kidia)) 1))
      (not (= _for_it_46 (+ _for_it_46 1)))
      (not (= (select _if_cond_39_val (- (+ _for_it_46 (* (- (+ _for_it_23 1) ncldtop) (- kfdia kidia)) 2) kidia)) 1))
      (not (= (select _if_cond_39_val (- (+ _for_it_46 (* (- (+ _for_it_23 1) ncldtop) (- kfdia kidia)) 1) kidia)) 1))
      (not (= (select _if_cond_43_val (- (+ _for_it_46 (* (- (+ _for_it_23 1) ncldtop) (- kfdia kidia)) 2) kidia)) 1))
    )
    (or
      (not (= (select _if_cond_32_val (- (+ _for_it_46 (* (- (+ _for_it_23 1) ncldtop) (- kfdia kidia)) 1) kidia)) 1))
      (not (= (select _if_cond_32_val (- (+ _for_it_46 (* (- (+ _for_it_23 1) ncldtop) (- kfdia kidia)) 2) kidia)) 1))
      (not (= (select _if_cond_39_val (- (+ _for_it_46 (* (- (+ _for_it_23 1) ncldtop) (- kfdia kidia)) 2) kidia)) 1))
      (not (= _for_it_46 (- (+ _for_it_46 2) 1)))
      (not (= (select _if_cond_39_val (- (+ _for_it_46 (* (- (+ _for_it_23 1) ncldtop) (- kfdia kidia)) 1) kidia)) 1))
    )
    (or
      (not (= (select _if_cond_32_val (- (+ _for_it_46 (* (- (+ _for_it_23 1) ncldtop) (- kfdia kidia)) 1) kidia)) 1))
      (not (= (select _if_cond_32_val (- (+ _for_it_46 (* (- (+ _for_it_23 1) ncldtop) (- kfdia kidia)) 2) kidia)) 1))
      (not (= _for_it_46 (+ _for_it_46 1)))
      (not (= (select _if_cond_39_val (- (+ _for_it_46 (* (- (+ _for_it_23 1) ncldtop) (- kfdia kidia)) 2) kidia)) 1))
      (not (= (select _if_cond_40_val 0) 1))
      (not (= (select _if_cond_39_val (- (+ _for_it_46 (* (- (+ _for_it_23 1) ncldtop) (- kfdia kidia)) 1) kidia)) 1))
      (= (select _if_cond_43_val (- (+ _for_it_46 (* (- (+ _for_it_23 1) ncldtop) (- kfdia kidia)) 2) kidia)) 1)
    )
    (or
      (not (= (select _if_cond_32_val (- (+ _for_it_46 (* (- (+ _for_it_23 1) ncldtop) (- kfdia kidia)) 1) kidia)) 1))
      (not (= (select _if_cond_32_val (- (+ _for_it_46 (* (- (+ _for_it_23 1) ncldtop) (- kfdia kidia)) 2) kidia)) 1))
      (not (= _for_it_46 (+ _for_it_46 1)))
      (not (= (select _if_cond_39_val (- (+ _for_it_46 (* (- (+ _for_it_23 1) ncldtop) (- kfdia kidia)) 2) kidia)) 1))
      (not (= (select _if_cond_40_val 0) 1))
      (not (= (select _if_cond_39_val (- (+ _for_it_46 (* (- (+ _for_it_23 1) ncldtop) (- kfdia kidia)) 1) kidia)) 1))
      (not (= (select _if_cond_43_val (- (+ _for_it_46 (* (- (+ _for_it_23 1) ncldtop) (- kfdia kidia)) 2) kidia)) 1))
    )
    (or
      (not (= (select _if_cond_32_val (- (+ _for_it_46 (* (- (+ _for_it_23 1) ncldtop) (- kfdia kidia)) 1) kidia)) 1))
      (not (= (select _if_cond_32_val (- (+ _for_it_46 (* (- (+ _for_it_23 1) ncldtop) (- kfdia kidia)) 2) kidia)) 1))
      (not (= (select _if_cond_39_val (- (+ _for_it_46 (* (- (+ _for_it_23 1) ncldtop) (- kfdia kidia)) 2) kidia)) 1))
      (not (= _for_it_46 (- (+ _for_it_46 2) 1)))
      (not (= (select _if_cond_40_val 0) 1))
      (not (= (select _if_cond_39_val (- (+ _for_it_46 (* (- (+ _for_it_23 1) ncldtop) (- kfdia kidia)) 1) kidia)) 1))
    )
    (or
      (not (= (select _if_cond_32_val (- (+ _for_it_46 (* (- (+ _for_it_23 1) ncldtop) (- kfdia kidia)) 1) kidia)) 1))
      (not (= (select _if_cond_32_val (- (+ _for_it_46 (* (- (+ _for_it_23 1) ncldtop) (- kfdia kidia)) 2) kidia)) 1))
      (not (= (select _if_cond_39_val (- (+ _for_it_46 (* (- (+ _for_it_23 1) ncldtop) (- kfdia kidia)) 2) kidia)) 1))
      (not (= (select _if_cond_40_val 0) 1))
      (not (= (select _if_cond_39_val (- (+ _for_it_46 (* (- (+ _for_it_23 1) ncldtop) (- kfdia kidia)) 1) kidia)) 1))
    )
    (or
      (not (= (select _if_cond_39_val (- (+ _for_it_46 (* (- (+ _for_it_23 1) ncldtop) (- kfdia kidia)) 1) kidia)) 1))
      (not (= (select _if_cond_32_val (- (+ _for_it_46 (* (- (+ _for_it_23 1) ncldtop) (- kfdia kidia)) 1) kidia)) 1))
      (not (= (select _if_cond_32_val (- (+ _for_it_46 (* (- (+ _for_it_23 1) ncldtop) (- kfdia kidia)) 2) kidia)) 1))
    )
    (or
      (not (= (- (+ _for_it_46 (* (- (+ _for_it_23 1) ncldtop) (- kfdia kidia)) 1) kidia) (- (+ _for_it_46 (* (- (+ _for_it_23 1) ncldtop) (- kfdia kidia)) 2) kidia)))
      (not (= (select _if_cond_32_val (- (+ _for_it_46 (* (- (+ _for_it_23 1) ncldtop) (- kfdia kidia)) 1) kidia)) 1))
      (not (= (select _if_cond_32_val (- (+ _for_it_46 (* (- (+ _for_it_23 1) ncldtop) (- kfdia kidia)) 2) kidia)) 1))
    )
    (or
      (not (= (select _if_cond_32_val (- (+ _for_it_46 (* (- (+ _for_it_23 1) ncldtop) (- kfdia kidia)) 1) kidia)) 1))
      (not (= (select _if_cond_32_val (- (+ _for_it_46 (* (- (+ _for_it_23 1) ncldtop) (- kfdia kidia)) 2) kidia)) 1))
      (= (select _if_cond_38_val (- (+ _for_it_46 (* (- (+ _for_it_23 1) ncldtop) (- kfdia kidia)) 1) kidia)) 1)
      (not (= (- (+ _for_it_46 (* (- (+ _for_it_23 1) ncldtop) (- kfdia kidia)) 1) kidia) (- (+ _for_it_46 (* (- (+ _for_it_23 1) ncldtop) (- kfdia kidia)) 2) kidia)))
      (= (select _if_cond_38_val (- (+ _for_it_46 (* (- (+ _for_it_23 1) ncldtop) (- kfdia kidia)) 2) kidia)) 1)
    )
    (or
      (not (= (- (+ _for_it_46 (* (- (+ _for_it_23 1) ncldtop) (- kfdia kidia)) 1) kidia) (- (+ _for_it_46 (* (- (+ _for_it_23 1) ncldtop) (- kfdia kidia)) 2) kidia)))
      (not (= (select _if_cond_32_val (- (+ _for_it_46 (* (- (+ _for_it_23 1) ncldtop) (- kfdia kidia)) 1) kidia)) 1))
      (not (= (select _if_cond_32_val (- (+ _for_it_46 (* (- (+ _for_it_23 1) ncldtop) (- kfdia kidia)) 2) kidia)) 1))
      (= (select _if_cond_38_val (- (+ _for_it_46 (* (- (+ _for_it_23 1) ncldtop) (- kfdia kidia)) 1) kidia)) 1)
      (not (= (select _if_cond_38_val (- (+ _for_it_46 (* (- (+ _for_it_23 1) ncldtop) (- kfdia kidia)) 2) kidia)) 1))
    )
    (or
      (not (= (select _if_cond_32_val (- (+ _for_it_46 (* (- (+ _for_it_23 1) ncldtop) (- kfdia kidia)) 1) kidia)) 1))
      (not (= (select _if_cond_32_val (- (+ _for_it_46 (* (- (+ _for_it_23 1) ncldtop) (- kfdia kidia)) 2) kidia)) 1))
      (not (= (select _if_cond_38_val (- (+ _for_it_46 (* (- (+ _for_it_23 1) ncldtop) (- kfdia kidia)) 1) kidia)) 1))
      (not (= (- (+ _for_it_46 (* (- (+ _for_it_23 1) ncldtop) (- kfdia kidia)) 1) kidia) (- (+ _for_it_46 (* (- (+ _for_it_23 1) ncldtop) (- kfdia kidia)) 2) kidia)))
      (= (select _if_cond_38_val (- (+ _for_it_46 (* (- (+ _for_it_23 1) ncldtop) (- kfdia kidia)) 2) kidia)) 1)
    )
    (or
      (not (= (- (+ _for_it_46 (* (- (+ _for_it_23 1) ncldtop) (- kfdia kidia)) 1) kidia) (- (+ _for_it_46 (* (- (+ _for_it_23 1) ncldtop) (- kfdia kidia)) 2) kidia)))
      (not (= (select _if_cond_32_val (- (+ _for_it_46 (* (- (+ _for_it_23 1) ncldtop) (- kfdia kidia)) 1) kidia)) 1))
      (not (= (select _if_cond_32_val (- (+ _for_it_46 (* (- (+ _for_it_23 1) ncldtop) (- kfdia kidia)) 2) kidia)) 1))
      (not (= (select _if_cond_38_val (- (+ _for_it_46 (* (- (+ _for_it_23 1) ncldtop) (- kfdia kidia)) 1) kidia)) 1))
      (not (= (select _if_cond_38_val (- (+ _for_it_46 (* (- (+ _for_it_23 1) ncldtop) (- kfdia kidia)) 2) kidia)) 1))
    )
    (or
      (not (= (select _if_cond_39_val (- (+ _for_it_46 (* (- (+ _for_it_23 1) ncldtop) (- kfdia kidia)) 2) kidia)) 1))
      (not (= (select _if_cond_32_val (- (+ _for_it_46 (* (- (+ _for_it_23 1) ncldtop) (- kfdia kidia)) 1) kidia)) 1))
      (not (= (select _if_cond_32_val (- (+ _for_it_46 (* (- (+ _for_it_23 1) ncldtop) (- kfdia kidia)) 2) kidia)) 1))
    )
    (or
      (not (= (select _if_cond_32_val (- (+ _for_it_46 (* (- (+ _for_it_23 1) ncldtop) (- kfdia kidia)) 1) kidia)) 1))
      (not (= (select _if_cond_32_val (- (+ _for_it_46 (* (- (+ _for_it_23 1) ncldtop) (- kfdia kidia)) 2) kidia)) 1))
    )
    (or
      (not (= (select _if_cond_32_val (- (+ _for_it_46 (* (- (+ _for_it_23 1) ncldtop) (- kfdia kidia)) 1) kidia)) 1))
      (not (< 0 (select zsigk_val (- (+ _for_it_46 (* (- (+ _for_it_23 1) ncldtop) (- kfdia kidia)) 2) kidia))))
      (not (= (select _if_cond_32_val (- (+ _for_it_46 (* (- (+ _for_it_23 1) ncldtop) (- kfdia kidia)) 2) kidia)) 1))
      (not (< 0 (select zsigk_val (- (+ _for_it_46 (* (- (+ _for_it_23 1) ncldtop) (- kfdia kidia)) 1) kidia))))
    )
    (or
      (not (= (select _if_cond_32_val (- (+ _for_it_46 (* (- (+ _for_it_23 1) ncldtop) (- kfdia kidia)) 1) kidia)) 1))
      (not (= (select _if_cond_32_val (- (+ _for_it_46 (* (- (+ _for_it_23 1) ncldtop) (- kfdia kidia)) 2) kidia)) 1))
      (not (< 0 (select zsigk_val (- (+ _for_it_46 (* (- (+ _for_it_23 1) ncldtop) (- kfdia kidia)) 1) kidia))))
    )
    (or
      (not (= (select _if_cond_32_val (- (+ _for_it_46 (* (- (+ _for_it_23 1) ncldtop) (- kfdia kidia)) 1) kidia)) 1))
      (not (< 0 (select zsigk_val (- (+ _for_it_46 (* (- (+ _for_it_23 1) ncldtop) (- kfdia kidia)) 2) kidia))))
      (not (= (select _if_cond_32_val (- (+ _for_it_46 (* (- (+ _for_it_23 1) ncldtop) (- kfdia kidia)) 2) kidia)) 1))
    )
  )
))

(check-sat)